100
1979
4
26
81
37
5
0 4
0 5
0 7
0 9
0 11
0 13
0 19
0 20
0 21
0 23
0 24
0 26
0 33
0 34
0 38
0 42
0 43
0 44
0 46
0 49
0 51
0 54
0 61
0 62
0 63
0 64
0 67
0 69
0 71
0 73
0 77
0 78
0 81
0 82
0 83
0 84
0 89
0 92
0 93
0 99
1 2
1 5
1 8
1 9
1 10
1 12
1 13
1 15
1 17
1 19
1 21
1 22
1 23
1 24
1 25
1 29
1 36
1 43
1 49
1 53
1 54
1 57
1 58
1 60
1 61
1 62
1 65
1 70
1 72
1 74
1 79
1 81
1 85
1 86
1 87
1 88
1 91
1 93
1 94
1 97
1 99
2 5
2 10
2 15
2 22
2 23
2 25
2 26
2 30
2 32
2 33
2 34
2 35
2 37
2 40
2 42
2 51
2 54
2 56
2 61
2 62
2 65
2 73
2 74
2 76
2 77
2 78
2 79
2 82
2 83
2 85
2 92
2 95
3 5
3 7
3 8
3 11
3 12
3 13
3 19
3 24
3 26
3 29
3 32
3 34
3 35
3 37
3 39
3 42
3 43
3 44
3 46
3 56
3 57
3 59
3 61
3 63
3 66
3 67
3 69
3 70
3 71
3 73
3 78
3 79
3 81
3 83
3 84
3 89
3 90
3 92
3 93
3 98
4 7
4 8
4 10
4 12
4 13
4 17
4 18
4 20
4 25
4 27
4 32
4 41
4 44
4 50
4 51
4 53
4 55
4 57
4 59
4 63
4 64
4 75
4 76
4 77
4 78
4 79
4 82
4 84
4 86
4 88
4 89
4 92
4 93
4 94
5 6
5 9
5 12
5 15
5 16
5 17
5 18
5 20
5 21
5 23
5 24
5 25
5 27
5 28
5 37
5 38
5 40
5 42
5 44
5 45
5 46
5 52
5 53
5 54
5 59
5 66
5 67
5 71
5 72
5 79
5 81
5 83
5 91
5 95
5 99
6 9
6 15
6 17
6 18
6 19
6 21
6 23
6 28
6 30
6 32
6 33
6 39
6 41
6 43
6 44
6 45
6 47
6 48
6 49
6 50
6 51
6 54
6 55
6 58
6 60
6 62
6 67
6 69
6 70
6 75
6 76
6 77
6 78
6 80
6 89
6 94
6 97
7 8
7 11
7 14
7 15
7 20
7 24
7 30
7 31
7 32
7 41
7 44
7 47
7 51
7 52
7 54
7 57
7 63
7 69
7 75
7 78
7 80
7 81
7 82
7 86
7 87
7 88
7 91
7 93
7 95
7 97
8 13
8 16
8 22
8 23
8 26
8 30
8 31
8 32
8 36
8 43
8 44
8 46
8 48
8 55
8 56
8 63
8 65
8 67
8 71
8 74
8 76
8 77
8 78
8 79
8 82
8 84
8 86
8 89
8 90
8 91
8 95
8 99
9 12
9 15
9 16
9 17
9 20
9 22
9 25
9 26
9 27
9 28
9 30
9 32
9 35
9 37
9 38
9 39
9 40
9 41
9 43
9 46
9 48
9 49
9 52
9 55
9 56
9 60
9 63
9 68
9 69
9 73
9 75
9 76
9 78
9 79
9 80
9 82
9 84
9 93
9 95
9 97
9 98
9 99
10 14
10 16
10 19
10 21
10 22
10 26
10 27
10 28
10 29
10 32
10 36
10 39
10 45
10 46
10 47
10 48
10 49
10 50
10 53
10 54
10 57
10 64
10 72
10 78
10 79
10 80
10 83
10 84
10 85
10 86
10 90
10 91
10 92
10 95
10 96
10 98
10 99
11 14
11 16
11 19
11 25
11 26
11 28
11 38
11 40
11 41
11 48
11 54
11 56
11 59
11 61
11 69
11 70
11 73
11 77
11 82
11 84
11 85
11 88
11 91
11 92
11 94
11 95
11 96
11 97
12 16
12 17
12 19
12 20
12 24
12 25
12 28
12 30
12 42
12 43
12 47
12 53
12 54
12 56
12 57
12 58
12 59
12 61
12 66
12 67
12 70
12 71
12 73
12 74
12 77
12 79
12 81
12 84
12 85
12 91
12 93
12 94
12 95
13 17
13 19
13 20
13 21
13 22
13 24
13 25
13 34
13 41
13 42
13 43
13 44
13 46
13 47
13 49
13 50
13 51
13 60
13 64
13 66
13 70
13 71
13 72
13 80
13 81
13 83
13 86
13 89
13 90
13 97
13 99
14 16
14 17
14 18
14 20
14 21
14 23
14 26
14 29
14 31
14 33
14 35
14 36
14 38
14 43
14 45
14 46
14 47
14 52
14 59
14 64
14 66
14 67
14 68
14 71
14 73
14 79
14 80
14 84
14 85
14 88
14 92
14 93
14 95
14 96
14 98
14 99
15 16
15 20
15 21
15 24
15 25
15 29
15 32
15 33
15 34
15 35
15 38
15 42
15 45
15 51
15 52
15 53
15 54
15 55
15 57
15 58
15 59
15 62
15 69
15 77
15 78
15 79
15 80
15 82
15 83
15 89
15 93
15 94
15 97
15 98
16 18
16 19
16 21
16 28
16 36
16 38
16 45
16 46
16 47
16 50
16 51
16 52
16 54
16 57
16 58
16 59
16 60
16 63
16 65
16 68
16 69
16 71
16 72
16 73
16 74
16 82
16 83
16 85
16 88
16 92
16 94
16 97
16 99
17 20
17 23
17 26
17 27
17 34
17 36
17 37
17 40
17 43
17 46
17 47
17 53
17 55
17 56
17 59
17 64
17 67
17 70
17 71
17 72
17 73
17 74
17 78
17 79
17 80
17 81
17 82
17 85
17 86
17 87
17 88
17 89
17 92
17 99
18 19
18 23
18 24
18 25
18 28
18 29
18 31
18 34
18 36
18 37
18 38
18 40
18 41
18 42
18 44
18 49
18 51
18 52
18 54
18 55
18 56
18 64
18 65
18 67
18 68
18 69
18 70
18 71
18 76
18 79
18 83
18 86
18 88
18 89
18 90
18 91
18 93
18 94
18 95
18 97
18 98
19 21
19 24
19 25
19 26
19 27
19 30
19 35
19 37
19 39
19 40
19 41
19 42
19 43
19 44
19 48
19 50
19 52
19 53
19 54
19 56
19 58
19 60
19 61
19 64
19 65
19 66
19 67
19 68
19 70
19 75
19 78
19 79
19 81
19 87
19 88
19 90
19 91
19 92
19 94
19 95
19 96
19 99
20 24
20 27
20 31
20 34
20 41
20 43
20 49
20 52
20 60
20 61
20 64
20 67
20 71
20 72
20 77
20 83
20 84
20 88
20 93
21 23
21 24
21 26
21 27
21 28
21 34
21 39
21 41
21 42
21 44
21 45
21 46
21 49
21 51
21 56
21 59
21 60
21 68
21 69
21 70
21 72
21 74
21 75
21 76
21 81
21 82
21 83
21 86
21 87
21 88
21 90
21 96
21 97
21 99
22 26
22 27
22 28
22 38
22 46
22 48
22 49
22 51
22 52
22 53
22 54
22 58
22 62
22 63
22 64
22 66
22 67
22 68
22 77
22 78
22 79
22 80
22 82
22 88
22 92
22 94
22 96
22 97
22 98
23 25
23 28
23 29
23 31
23 33
23 37
23 38
23 40
23 46
23 47
23 50
23 51
23 54
23 56
23 57
23 58
23 60
23 61
23 62
23 63
23 64
23 67
23 69
23 70
23 71
23 72
23 75
23 77
23 82
23 88
23 90
23 93
23 94
23 96
23 97
23 99
24 25
24 26
24 28
24 31
24 34
24 35
24 38
24 39
24 43
24 46
24 50
24 53
24 55
24 56
24 58
24 64
24 66
24 70
24 73
24 74
24 76
24 78
24 79
24 82
24 83
24 85
24 86
24 88
24 90
24 91
24 92
24 94
24 96
24 98
25 27
25 34
25 43
25 50
25 52
25 55
25 56
25 61
25 62
25 64
25 65
25 68
25 69
25 70
25 76
25 79
25 80
25 84
25 85
25 86
25 87
25 88
25 90
25 92
25 96
25 97
25 99
26 33
26 35
26 42
26 44
26 45
26 46
26 47
26 48
26 49
26 51
26 53
26 56
26 57
26 58
26 59
26 63
26 66
26 69
26 71
26 72
26 73
26 79
26 81
26 83
26 90
26 95
27 28
27 30
27 31
27 39
27 44
27 45
27 47
27 51
27 53
27 57
27 59
27 61
27 64
27 65
27 67
27 69
27 71
27 72
27 73
27 74
27 84
27 91
27 95
27 99
28 30
28 33
28 34
28 36
28 45
28 47
28 53
28 55
28 60
28 62
28 63
28 64
28 65
28 66
28 68
28 73
28 74
28 75
28 76
28 77
28 78
28 80
28 81
28 85
28 88
28 92
28 94
28 96
28 98
29 31
29 33
29 36
29 39
29 41
29 43
29 44
29 45
29 46
29 50
29 53
29 54
29 57
29 59
29 60
29 63
29 70
29 72
29 73
29 74
29 81
29 84
29 85
29 86
29 88
29 92
29 93
29 97
29 99
30 33
30 34
30 36
30 38
30 41
30 43
30 44
30 47
30 49
30 50
30 52
30 53
30 54
30 61
30 62
30 64
30 65
30 66
30 68
30 74
30 77
30 79
30 82
30 85
30 88
30 90
30 92
30 94
30 95
30 99
31 33
31 34
31 36
31 37
31 39
31 46
31 49
31 51
31 53
31 56
31 59
31 60
31 62
31 63
31 64
31 66
31 67
31 69
31 71
31 72
31 76
31 77
31 80
31 85
31 93
31 99
32 35
32 37
32 38
32 43
32 44
32 47
32 54
32 57
32 58
32 59
32 61
32 64
32 68
32 71
32 73
32 74
32 76
32 78
32 79
32 80
32 81
32 84
32 86
32 89
32 90
33 35
33 36
33 38
33 41
33 47
33 50
33 51
33 53
33 56
33 61
33 62
33 63
33 64
33 65
33 67
33 70
33 79
33 81
33 82
33 83
33 85
33 90
33 95
33 97
33 98
33 99
34 37
34 47
34 49
34 50
34 58
34 61
34 64
34 65
34 66
34 68
34 70
34 76
34 82
34 85
34 87
34 89
34 93
34 94
34 98
34 99
35 39
35 41
35 42
35 43
35 44
35 45
35 46
35 47
35 48
35 49
35 50
35 51
35 52
35 55
35 56
35 59
35 61
35 62
35 63
35 64
35 66
35 69
35 71
35 72
35 77
35 78
35 79
35 80
35 83
35 84
35 87
35 92
35 93
35 96
35 97
35 99
36 40
36 43
36 50
36 52
36 53
36 55
36 61
36 64
36 65
36 68
36 70
36 72
36 73
36 74
36 76
36 81
36 82
36 83
36 85
36 93
36 94
36 97
36 98
37 41
37 42
37 48
37 51
37 52
37 55
37 57
37 63
37 65
37 76
37 77
37 78
37 79
37 85
37 86
37 87
37 90
37 92
37 98
38 40
38 44
38 47
38 48
38 53
38 54
38 55
38 56
38 58
38 61
38 62
38 65
38 66
38 70
38 73
38 74
38 83
38 84
38 87
38 96
39 40
39 43
39 44
39 48
39 51
39 53
39 56
39 58
39 59
39 61
39 62
39 65
39 66
39 67
39 70
39 72
39 76
39 78
39 84
39 85
39 87
39 88
39 89
39 91
39 92
39 93
39 95
39 97
39 99
40 41
40 45
40 46
40 48
40 50
40 51
40 52
40 53
40 54
40 56
40 57
40 61
40 63
40 65
40 66
40 71
40 77
40 78
40 79
40 81
40 85
40 89
40 90
40 91
40 94
41 46
41 48
41 53
41 55
41 59
41 67
41 71
41 72
41 80
41 81
41 83
41 85
41 86
41 87
41 89
41 92
41 94
41 98
41 99
42 44
42 45
42 47
42 48
42 49
42 57
42 58
42 61
42 62
42 64
42 65
42 67
42 71
42 72
42 73
42 74
42 76
42 78
42 84
42 85
42 87
42 89
42 90
42 93
42 94
42 98
42 99
43 46
43 48
43 49
43 52
43 53
43 57
43 59
43 63
43 64
43 65
43 66
43 69
43 70
43 71
43 75
43 78
43 83
43 84
43 86
43 88
43 89
43 93
43 96
43 97
43 98
43 99
44 46
44 48
44 49
44 51
44 52
44 53
44 54
44 59
44 62
44 63
44 64
44 66
44 67
44 68
44 71
44 75
44 80
44 82
44 85
44 89
44 90
44 91
44 93
44 95
44 97
44 98
45 46
45 48
45 50
45 51
45 54
45 55
45 59
45 63
45 64
45 65
45 67
45 71
45 74
45 76
45 77
45 78
45 79
45 80
45 82
45 86
45 87
45 95
45 98
46 49
46 55
46 57
46 65
46 69
46 71
46 73
46 74
46 75
46 76
46 81
46 83
46 87
46 89
46 90
46 92
46 94
46 97
46 98
46 99
47 48
47 49
47 51
47 54
47 55
47 59
47 60
47 62
47 64
47 65
47 66
47 71
47 72
47 74
47 77
47 78
47 90
47 98
48 51
48 54
48 55
48 57
48 58
48 60
48 61
48 66
48 68
48 69
48 70
48 71
48 77
48 81
48 83
48 85
48 88
48 90
48 93
48 96
48 98
49 52
49 54
49 56
49 57
49 59
49 63
49 64
49 66
49 68
49 71
49 75
49 77
49 85
49 86
49 87
49 91
49 96
49 98
49 99
50 51
50 55
50 56
50 58
50 59
50 60
50 61
50 65
50 69
50 71
50 73
50 76
50 82
50 85
50 86
50 88
50 89
50 90
50 93
50 95
50 97
50 98
51 56
51 59
51 60
51 61
51 62
51 64
51 66
51 71
51 75
51 76
51 77
51 80
51 83
51 91
51 93
51 95
51 96
51 97
51 98
52 56
52 59
52 60
52 61
52 63
52 66
52 69
52 73
52 77
52 79
52 81
52 85
52 87
52 91
52 92
52 93
52 95
52 99
53 54
53 55
53 57
53 58
53 59
53 61
53 64
53 75
53 76
53 80
53 83
53 86
53 89
53 92
53 98
54 59
54 62
54 63
54 64
54 73
54 74
54 75
54 76
54 79
54 81
54 84
54 85
54 91
54 92
54 94
54 95
54 97
54 99
55 56
55 58
55 63
55 64
55 66
55 71
55 73
55 77
55 80
55 81
55 82
55 84
55 86
55 88
55 89
55 92
55 97
55 99
56 68
56 69
56 71
56 74
56 78
56 79
56 81
56 82
56 84
56 86
56 87
56 92
56 94
56 95
56 96
56 97
56 98
57 58
57 59
57 65
57 66
57 67
57 71
57 72
57 73
57 75
57 76
57 77
57 78
57 81
57 84
57 85
57 86
57 88
57 89
57 91
57 92
57 93
57 94
58 59
58 64
58 66
58 69
58 72
58 74
58 75
58 76
58 78
58 80
58 81
58 86
58 89
58 90
58 91
58 97
59 60
59 63
59 64
59 66
59 67
59 71
59 74
59 78
59 82
59 84
59 89
59 91
59 93
59 94
59 96
59 98
60 62
60 63
60 64
60 66
60 67
60 70
60 71
60 74
60 77
60 79
60 84
60 87
60 89
60 91
60 93
60 94
60 95
60 96
60 97
60 98
61 67
61 70
61 75
61 78
61 83
61 87
61 88
61 89
61 97
61 99
62 64
62 65
62 66
62 68
62 69
62 71
62 72
62 76
62 77
62 81
62 84
62 86
62 87
62 89
62 96
62 97
62 99
63 65
63 67
63 69
63 70
63 75
63 76
63 78
63 79
63 81
63 86
63 90
63 92
63 98
64 66
64 67
64 68
64 69
64 73
64 75
64 77
64 78
64 80
64 81
64 83
64 88
64 89
64 94
64 95
64 96
64 99
65 66
65 67
65 68
65 70
65 75
65 81
65 85
65 90
65 94
66 68
66 73
66 74
66 75
66 81
66 84
66 85
66 87
66 90
66 91
66 94
66 98
67 68
67 69
67 70
67 72
67 73
67 74
67 75
67 82
67 85
67 86
67 87
67 89
67 90
67 91
67 94
67 96
67 97
67 98
68 69
68 73
68 74
68 77
68 80
68 81
68 84
68 86
68 90
68 92
68 95
68 98
68 99
69 71
69 72
69 73
69 75
69 85
69 86
69 88
69 90
69 92
69 94
69 96
69 97
70 71
70 80
70 81
70 83
70 85
70 86
70 88
70 89
70 90
70 92
70 95
71 73
71 75
71 77
71 78
71 79
71 80
71 81
71 83
71 86
71 87
71 88
71 91
71 92
71 93
71 94
71 97
72 73
72 75
72 79
72 82
72 83
72 84
72 87
72 91
72 92
72 94
72 96
72 98
72 99
73 75
73 77
73 79
73 85
73 87
73 95
73 96
73 99
74 77
74 83
74 84
74 86
74 88
74 90
74 94
74 95
74 96
74 99
75 76
75 79
75 80
75 81
75 82
75 84
75 87
75 88
75 89
75 91
75 92
75 93
75 94
75 97
76 78
76 82
76 85
76 86
76 88
76 90
76 98
76 99
77 78
77 80
77 81
77 82
77 83
77 84
77 88
77 89
77 90
77 93
78 83
78 86
78 87
78 88
78 93
78 95
78 98
79 83
79 91
79 93
79 98
80 82
80 84
80 85
80 89
80 92
80 95
80 96
80 97
80 98
80 99
81 82
81 90
81 91
81 95
81 97
81 98
82 86
82 93
82 94
83 84
83 85
83 89
83 98
84 86
84 87
84 92
84 97
85 86
85 87
85 90
85 93
85 94
85 97
85 99
86 90
86 92
86 93
86 94
86 95
86 96
86 98
87 88
87 91
87 94
87 95
87 96
87 97
87 98
88 89
88 90
88 94
88 95
88 99
89 92
89 93
89 95
89 98
90 91
90 93
90 95
90 96
90 98
90 99
91 92
91 94
91 96
91 97
91 99
92 94
92 95
92 96
93 95
93 96
93 97
94 95
94 97
94 99
95 96
97 99
79 95 52 60 42 31 0 86 46 47 54 19 6 74 21 35 9 15 70 23 59 13 28 40 68
96 12 30 89 45 24 85 87 56 38 65 53 34 97 80 72 5 93 78 82 11 71 18 32 81
25 88 49 83 57 10 76 51 92 63 75 67 69 48 14 22 7 98 62 17 29 37 44 3 16
36 2 26 27 8 99 61 91 66 55 4 39 64 20 90 43 33 84 58 94 73 50 41 1 77
